100 58200

 336 305
946 736
746 497
892 291
375 940
8 102
341 986
129 267
776 867
669 968
352 622
358 974
517 842
495 962
86 942
175 777
802 3
193 85
311 794
119 328
218 816
427 450
970 454
414 924
114 629
978 221
145 154
538 665
648 12
303 133
744 994
881 304
588 293
987 975
840 300
345 740
814 783
964 43
801 944
1 343
147 326
287 814
976 498
654 364
53 891
304 427
69 21
361 407
602 619
958 336
220 815
962 117
704 124
966 399
575 793
585 804
161 715
681 51
89 783
688 324
781 789
585 141
757 470
589 787
159 802
489 334
971 893
324 964
610 373
381 564
102 494
494 539
644 669
614 751
19 156
454 291
482 648
594 144
397 106
279 420
851 670
365 658
331 2
641 945
344 589
822 644
455 90
601 345
725 350
655 459
65 263
76 351
711 108
143 586
917 39
915 909
828 159
605 583
473 959
417 312
